@relation travelia_reco_pays
@attribute month numeric
@attribute payment {virement}
@attribute transport {avion}
@attribute price_bucket {cheap,medium,high}
@attribute last_country {afghanistan,albania,algeria,andorra,angola,argentina,armenia,australia,austria,azerbaijan,bahamas,bahrain,bangladesh,barbados,belarus,belgium,belize,benin,bhutan,bolivia,bosnia_and_herzegovina,botswana,brazil,brunei,bulgaria,burkina_faso,burundi,cambodia,cameroon,canada,chile,china,colombia,comoros,congo,costa_rica,croatia,cuba,cyprus,czech_republic,denmark,djibouti,dominica,dominican_republic,ecuador,egypt,el_salvador,equatorial_guinea,eritrea,estonia,eswatini,ethiopia,fiji,finland,france,gabon,gambia,georgia,germany,ghana,greece,grenada,guatemala,guinea,guyana,haiti,honduras,hungary,iceland,india,indonesia,iran,iraq,ireland,israel,italy,jamaica,japan,jordan,kazakhstan,kenya,kiribati,kuwait,kyrgyzstan,laos,latvia,lebanon,lesotho,liberia,libya,liechtenstein,lithuania,luxembourg,madagascar,malawi,malaysia,maldives,mali,malta,marshall_islands,mauritania,mauritius,mexico,micronesia,moldova,monaco,mongolia,montenegro,morocco,mozambique,myanmar,namibia,nauru,nepal,netherlands,new_zealand,nicaragua,niger,nigeria,none,north_korea,north_macedonia,norway,oman,pakistan,palau,palestine,panama,papua_new_guinea,paraguay,paris,peru,philippines,poland,portugal,qatar,romania,russia,rwanda,samoa,san_marino,saudi_arabia,senegal,serbia,seychelles,sierra_leone,singapore,slovakia,slovenia,solomon_islands,somalia,south_africa,south_korea,south_sudan,spain,sri_lanka,sudan,suriname,sweden,switzerland,syria,taiwan,tajikistan,tanzania,thailand,timor-leste,togo,tonga,trinidad_and_tobago,tunisia,turkey,turkmenistan,tuvalu,uganda,ukraine,united_arab_emirates,united_kingdom,united_states,uruguay,uzbekistan,vanuatu,vatican_city,venezuela,vietnam,yemen,zambia,zimbabwe}
@attribute target_pays {afghanistan,albania,algeria,andorra,angola,argentina,armenia,australia,austria,azerbaijan,bahamas,bahrain,bangladesh,barbados,belarus,belgium,belize,benin,bhutan,bolivia,bosnia_and_herzegovina,botswana,brazil,brunei,bulgaria,burkina_faso,burundi,cambodia,cameroon,canada,chile,china,colombia,comoros,congo,costa_rica,croatia,cuba,cyprus,czech_republic,denmark,djibouti,dominica,dominican_republic,ecuador,egypt,el_salvador,equatorial_guinea,eritrea,estonia,eswatini,ethiopia,fiji,finland,france,gabon,gambia,georgia,germany,ghana,greece,grenada,guatemala,guinea,guyana,haiti,honduras,hungary,iceland,india,indonesia,iran,iraq,ireland,israel,italy,jamaica,japan,jordan,kazakhstan,kenya,kiribati,kuwait,kyrgyzstan,laos,latvia,lebanon,lesotho,liberia,libya,liechtenstein,lithuania,luxembourg,madagascar,malawi,malaysia,maldives,mali,malta,marshall_islands,mauritania,mauritius,mexico,micronesia,moldova,monaco,mongolia,montenegro,morocco,mozambique,myanmar,namibia,nauru,nepal,netherlands,new_zealand,nicaragua,niger,nigeria,none,north_korea,north_macedonia,norway,oman,pakistan,palau,palestine,panama,papua_new_guinea,paraguay,paris,peru,philippines,poland,portugal,qatar,romania,russia,rwanda,samoa,san_marino,saudi_arabia,senegal,serbia,seychelles,sierra_leone,singapore,slovakia,slovenia,solomon_islands,somalia,south_africa,south_korea,south_sudan,spain,sri_lanka,sudan,suriname,sweden,switzerland,syria,taiwan,tajikistan,tanzania,thailand,timor-leste,togo,tonga,trinidad_and_tobago,tunisia,turkey,turkmenistan,tuvalu,uganda,ukraine,united_arab_emirates,united_kingdom,united_states,uruguay,uzbekistan,vanuatu,vatican_city,venezuela,vietnam,yemen,zambia,zimbabwe}
@data
3,virement,avion,high,none,paris
3,virement,avion,medium,none,paris
3,virement,avion,high,paris,taiwan
3,virement,avion,medium,taiwan,canada
3,virement,avion,medium,canada,paris
3,virement,avion,medium,paris,paris
3,virement,avion,cheap,paris,paris
